19 965
525 7 505 7 381 7 218 9 50 11 850 15 664 21
525 7 482 7 367 7 213 9 31 11 790 18
520 7 479 7 356 7 157 9 9 11 815 15 658 22
525 7 477 7 391 7 243 9 78 11 921 15
535 8 494 8 321 11
535 8 494 8 321 11
525 7 482 7 365 7 115 9 943 13
525 7 482 7 365 7 115 9 943 13
525 7 482 7 365 7 115 9 943 13
525 7 482 7 365 7 115 9 943 13
525 7 482 7 367 7 213 9 32 11 824 18
525 7 482 7 367 7 213 9 32 11 824 18
525 7 482 7 367 7 213 9 32 11 824 18
535 8 512 8 469 7 405 15 290 26
535 8 512 8 469 7 405 15 290 26
535 8 512 8 469 7 405 15 290 26
535 8 493 8 396 9 228 10 178 22
535 8 493 8 396 9 228 10 178 22
535 8 493 8 396 9 228 10 178 22
